
<<< setup


<<< generate

Version identifier: 22.1.1.0 | 2022-11-28 | 9160aff4d
CPXPARAM_TimeLimit                               1800
CPXPARAM_MIP_Tolerances_MIPGap                   0.01
Presolve has eliminated 0 rows and 121771 columns...
Tried aggregator 2 times.
MIP Presolve eliminated 989 rows and 121771 columns.
MIP Presolve modified 243542 coefficients.
Aggregator did 487084 substitutions.
Reduced MIP has 730626 rows, 1097421 columns, and 2191878 nonzeros.
Reduced MIP has 609349 binaries, 988 generals, 0 SOSs, and 487084 indicators.
Presolve time = 2.71 sec. (936860.54 ticks)
Probing fixed 0 vars, tightened 121771 bounds.
Probing time = 3.26 sec. (4102.58 ticks)
Tried aggregator 2 times.
MIP Presolve eliminated 243542 rows and 122265 columns.
Aggregator did 121771 substitutions.
Reduced MIP has 365313 rows, 853385 columns, and 1339481 nonzeros.
Reduced MIP has 487084 binaries, 122759 generals, 0 SOSs, and 487084 indicators.
Presolve time = 1.39 sec. (1688.04 ticks)
Probing time = 0.69 sec. (44.67 ticks)
Tried aggregator 1 time.
Detecting symmetries...
Reduced MIP has 365313 rows, 853385 columns, and 1339481 nonzeros.
Reduced MIP has 487084 binaries, 122759 generals, 0 SOSs, and 487084 indicators.
Presolve time = 1.28 sec. (1237.81 ticks)
Probing time = 0.73 sec. (51.50 ticks)
Clique table members: 243542.
MIP emphasis: balance optimality and feasibility.
MIP search method: dynamic search.
Parallel mode: deterministic, using up to 8 threads.
Root relaxation solution time = 0.31 sec. (397.23 ticks)

        Nodes                                         Cuts/
   Node  Left     Objective  IInf  Best Integer    Best Bound    ItCnt     Gap

*     0     0      integral     0    80000.0000    80000.0000        0    0.00%
Elapsed time = 13.91 sec. (953007.47 ticks, tree = 0.00 MB, solutions = 1)

Root node processing (before b&c):
  Real time             =   14.04 sec. (953038.29 ticks)
Parallel b&c, 8 threads:
  Real time             =    0.00 sec. (0.00 ticks)
  Sync time (average)   =    0.00 sec.
  Wait time (average)   =    0.00 sec.
                          ------------
Total (root+branch&cut) =   14.04 sec. (953038.29 ticks)

<<< solve


OBJECTIVE: 80000

<<< post process


<<< done

